

































































































67 72 6 34 45 
58 65 37 23 
29 76 59 56 19 
44 17 47 48 
27 25 8 41 
39 26 74 46 
10 12 51 62 7 
13 4 63 55 14 
73 69 61 40 32 
35 36 49 71 33 
42 60 11 53 66 
57 3 68 5 
21 54 24 15 38 
16 0 75 22 1 
28 18 50 43 64 
2 31 
70 30 52 20 9 
